User:   ksb@sh-10-29.local
Date:   Mon Oct 16 02:40:10 2017
Arch:   x86_64
Pid:    46870
Python: 2.7.13
gpaw:   /scratch/users/ksb/gpaw/ggafirst/install/lib/python2.7/site-packages/gpaw
_gpaw:  /scratch/users/ksb/gpaw/ggafirst/install/bin/gpaw-python
ase:    /scratch/users/ksb/gpaw/gpaw_sg15/lib/python2.7/site-packages/ase-3.14.1-py2.7.egg/ase (version 3.14.1)
numpy:  /scratch/PI/suncat/sw/lib/python2.7/site-packages/numpy-1.12.1-py2.7-linux-x86_64.egg/numpy (version 1.12.1)
scipy:  /scratch/PI/suncat/sw/lib/python2.7/site-packages/scipy-0.19.0-py2.7-linux-x86_64.egg/scipy (version 0.19.0)
units:  Angstrom and eV
cores:  16

Input parameters:
  convergence: {energy: 0.0005}
  eigensolver: {name: dav,
                niter: 5}
  kpts: [6 6 4]
  maxiter: 500
  mixer: {backend: pulay,
          beta: 0.1,
          method: separate,
          nmaxold: 10,
          weight: 100}
  mode: {ecut: 1700.0,
         name: pw}
  nbands: -12
  occupations: {name: fermi-dirac,
                width: 0.1}
  setups: paw
  spinpol: False
  symmetry: {do_not_symmetrize_the_density: True}
  xc: mBEEF

System changes: positions, numbers, cell, pbc, initial_charges, initial_magmoms

Initialize ...

Zn-setup:
  name: Zinc
  id: 9da902d12d12265ad8e0029a903fe3c0
  Z: 30
  valence: 12
  core: 18
  charge: 0.0
  file: /scratch/users/ksb/gpaw/gpaw_sg15/norm_conserving_setups/Zn.PBE.gz
  cutoffs: 1.16(comp), 2.14(filt), 2.28(core), lmax=2
  valence states:
                energy  radius
    4s(2.00)    -5.977   1.286
    4p(0.00)    -1.117   1.270
    3d(10.00)   -10.142   1.180
    *s          21.234   1.286
    *p          26.095   1.270
    *d          17.070   1.180

  Using partial waves for Zn as LCAO basis

Reference energy: -97722.653306

Spin-paired calculation

Occupation numbers:
  Fermi-Dirac: width=0.1000 eV

Convergence criteria:
  Maximum total energy change: 0.0005 eV / electron
  Maximum integral of absolute density change: 0.0001 electrons
  Maximum integral of absolute eigenstate change: 4e-08 eV^2
  Maximum number of iterations: 500

Symmetries present (total): 12

  ( 1  1  0)  ( 1  1  0)  ( 1  0  0)  ( 1  0  0)  ( 0  1  0)  ( 0  1  0)
  ( 0 -1  0)  ( 0 -1  0)  ( 0  1  0)  ( 0  1  0)  (-1 -1  0)  (-1 -1  0)
  ( 0  0  1)  ( 0  0 -1)  ( 0  0  1)  ( 0  0 -1)  ( 0  0  1)  ( 0  0 -1)

  ( 0 -1  0)  ( 0 -1  0)  (-1  0  0)  (-1  0  0)  (-1 -1  0)  (-1 -1  0)
  (-1  0  0)  (-1  0  0)  ( 1  1  0)  ( 1  1  0)  ( 1  0  0)  ( 1  0  0)
  ( 0  0  1)  ( 0  0 -1)  ( 0  0  1)  ( 0  0 -1)  ( 0  0  1)  ( 0  0 -1)
Note: your k-points are not as symmetric as your crystal!

144 k-points: 6 x 6 x 4 Monkhorst-Pack grid
24 k-points in the irreducible part of the Brillouin zone
       k-points in crystal coordinates                weights
   0:     0.08333333   -0.08333333    0.12500000          4/144
   1:     0.08333333   -0.08333333    0.37500000          4/144
   2:     0.08333333    0.08333333    0.12500000          4/144
   3:     0.08333333    0.08333333    0.37500000          4/144
   4:     0.25000000   -0.25000000    0.12500000          4/144
   5:     0.25000000   -0.25000000    0.37500000          4/144
   6:     0.25000000   -0.08333333    0.12500000          8/144
   7:     0.25000000   -0.08333333    0.37500000          8/144
   8:     0.25000000    0.08333333    0.12500000          8/144
   9:     0.25000000    0.08333333    0.37500000          8/144
          ...
  23:     0.41666667    0.41666667    0.37500000          4/144

Wave functions: Plane wave expansion
  Cutoff energy: 1700.000 eV
  Number of coefficients (min, max): 5108, 5154
  Using FFTW library
  Eigensolver: None  MatrixOperator buffer_size: default value or
                              see value of nblock in input file
Diagonalizer layout: Serial LAPACKOrthonormalizer layout: Serial LAPACK

Davidson(niter=5, smin=None, normalize=True)

Densities:
  Coarse grid: 24*24*50 grid
  Fine grid: 48*48*100 grid
  Total Charge: 0.000000

Density mixing:
  Method: separate
  Backend: pulay
  Linear mixing parameter: 0.1
  Mixing with 10 old densities
  Damping of long wave oscillations: 100

Hamiltonian:
  XC and Coulomb potentials evaluated on a 48*48*100 grid
  Using the mBEEF Exchange-Correlation functional

Total number of cores used: 16
Parallelization over k-points: 8
Parallelization over states: 2

Number of atoms: 2
Number of atomic orbitals: 18
Number of bands in calculation: 24
Bands to converge: occupied states only
Number of valence electrons: 24

... initialized

Initializing position-dependent things.

Density initialized from atomic densities
Creating initial wave functions:
  18 bands from LCAO basis set
  6 bands from random numbers

           Zn

       Zn

Positions:
   0 Zn     0.000000    0.000000    0.000000
   1 Zn     1.330190    0.767986    2.630641

Unit cell:
           periodic     x           y           z      points  spacing
  1. axis:    yes    2.660380    0.000000    0.000000    24     0.0960
  2. axis:    yes   -1.330190    2.303957    0.000000    24     0.0960
  3. axis:    yes    0.000000    0.000000    5.261282    50     0.1052

Effective grid spacing dv^(1/3) = 0.1038

                     log10-error:    total        iterations:
           time      wfs    density  energy       fermi  poisson
iter:   1  02:40:17  +1.52   +inf  -124.600682    3
iter:   2  02:40:20  -3.00   +inf  -124.602042    2
iter:   3  02:40:24  -3.87   +inf  -124.602074    1
iter:   4  02:40:28  -1.00  -1.59   -42.808223    4
iter:   5  02:40:32  -3.04  -1.51   -42.826302    3
iter:   6  02:40:37  -2.86  -1.45   -42.833087    4
iter:   7  02:40:41  -3.86  -2.22   -42.795444    3
iter:   8  02:40:45  -5.03  -2.42   -42.794737    3
iter:   9  02:40:49  -6.16  -3.04   -42.794655    2
iter:  10  02:40:53  -6.79  -3.47   -42.794645    2
iter:  11  02:40:58  -7.45  -4.07   -42.794646    2
iter:  12  02:41:02  -8.32  -4.30   -42.794648    2
iter:  13  02:41:06  -9.98  -5.04   -42.794648    2
iter:  14  02:41:10  -9.91  -5.15   -42.794649    2
iter:  15  02:41:15 -11.68  -6.00   -42.794649    1
iter:  16  02:41:19 -12.59  -6.43   -42.794649    1
iter:  17  02:41:23 -13.78  -6.83   -42.794649    1
iter:  18  02:41:27 -14.24  -7.52   -42.794649    1
iter:  19  02:41:31 -15.75  -8.12   -42.794649    1
iter:  20  02:41:36 -17.67  -8.73   -42.794649    1
iter:  21  02:41:40 -17.00  -8.87   -42.794649    1
iter:  22  02:41:44 -18.36  -9.19   -42.794649    1
iter:  23  02:41:48 -19.54  -9.38   -42.794649    0
iter:  24  02:41:52 -18.72  -9.50   -42.794649    1
iter:  25  02:41:56 -20.13  -9.92   -42.794649    0
iter:  26  02:42:01 -19.41 -10.00   -42.794649    0
iter:  27  02:42:05 -20.64 -10.28   -42.794649    0
iter:  28  02:42:09 -20.76 -10.42   -42.794649    0
iter:  29  02:42:13 -20.71 -10.51   -42.794649    0
iter:  30  02:42:17 -22.75 -11.04   -42.794649    0
iter:  31  02:42:21 -22.45 -11.12   -42.794649    0
iter:  32  02:42:26 -23.46 -11.64   -42.794649    0
iter:  33  02:42:30 -23.07 -11.75   -42.794649    0
iter:  34  02:42:34 -23.82 -12.23   -42.794649    0
iter:  35  02:42:38 -24.22 -12.97   -42.794649    0
iter:  36  02:42:42 -24.38 -13.15   -42.794649    0
iter:  37  02:42:47 -24.50 -13.78   -42.794649    0
iter:  38  02:42:51 -24.45 -13.94   -42.794649    0
iter:  39  02:42:55 -24.48 -14.15   -42.794649    0
iter:  40  02:42:59 -24.41 -14.27   -42.794649    0
iter:  41  02:43:03  -3.05   +inf  -123.273145    3
iter:  42  02:43:08  -3.88  -2.23  -123.252339    2
iter:  43  02:43:12  -4.48  -2.38  -123.237063    3
iter:  44  02:43:16  -4.14  -2.69  -123.238632    3
iter:  45  02:43:20  -5.63  -2.65  -123.238606    2
iter:  46  02:43:24  -2.91  -2.63  -123.240288    3
iter:  47  02:43:29  -4.14  -2.51  -123.240249    2
iter:  48  02:43:33  -3.75  -2.45  -123.239162    3
iter:  49  02:43:37  -5.25  -3.17  -123.239214    2
iter:  50  02:43:41  -5.44  -3.14  -123.239147    2
iter:  51  02:43:45  -5.63  -3.42  -123.239123    2
iter:  52  02:43:50  -5.91  -3.70  -123.239104    2
iter:  53  02:43:54  -6.28  -4.16  -123.239095    2
iter:  54  02:43:58  -8.49  -5.54  -123.239095    2

Converged after 54 iterations.

Dipole moment: (1.914017, -1.104685, 0.003352) |e|*Ang

Energy contributions relative to reference atoms: (reference = -97722.653306)

Kinetic:        +49.197906
Potential:      -41.724398
External:        +0.000000
XC:            -130.624731
Entropy (-ST):   -0.008306
Local:           -0.083720
Free energy:   -123.243248
Extrapolated:  -123.239095

Fermi level: 5.47253

Warning: Showing only first 2 kpts
 Kpt  Band  Eigenvalues  Occupancy
  0    10     -1.72398    0.05556
  0    11      0.64495    0.05556
  0    12      3.58303    0.05556
  0    13     16.14213    0.00000

  1    10     -1.75973    0.05556
  1    11     -1.31549    0.05556
  1
Forces in eV/Ang:
  0 Zn   -0.00000    0.00000    0.00000
  1 Zn
F
Forces in eV/Ang:
  0 Zn    0.00000    0.00000    0.00000
  1 Zn   -0.00000    0.00000    0.00000