     Program PWSCF v.6.1 starts on 12Nov2017 at 23:33: 4

     Current dimensions of program PWSCF are:
     Max number of different atomic species (ntypx) = 10
     Max number of k-points (npk) =  40000
     Max angular momentum in pseudopotentials (lmaxx) =  3
     Presently no symmetry can be used with electric field

     IMPORTANT: XC functional enforced from input :
     Exchange-correlation      = RPBE ( 1  4 30  4 0 0)
     Any further DFT definition will be discarded
     Please, verify this is what you really want

     bravais-lattice index     =            0
     lattice parameter (alat)  =       1.8897  a.u.
     unit-cell volume          =    9299.8385 (a.u.)^3
     number of atoms/cell      =           40
     number of atomic types    =            2
     number of electrons       =       300.00
     number of Kohn-Sham states=          170
     kinetic-energy cutoff     =      36.7493  Ry
     charge density cutoff     =     367.4932  Ry
     convergence threshold     =      7.3E-07
     mixing beta               =       0.1000
     number of iterations used =           10  plain     mixing
     Exchange-correlation      = RPBE ( 1  4 30  4 0 0)

     celldm(1)=   1.889726  celldm(2)=   0.000000  celldm(3)=   0.000000
     celldm(4)=   0.000000  celldm(5)=   0.000000  celldm(6)=   0.000000

     crystal axes: (cart. coord. in units of alat)
               a(1) = (   6.874000   0.000000  -0.000000 )
               a(2) = (   3.437000   5.953000  -0.000000 )
               a(3) = (   0.000000  -0.000000  33.677000 )

     reciprocal axes: (cart. coord. in units 2 pi/alat)
               b(1) = (  0.145476 -0.083991 -0.000000 )
               b(2) = (  0.000000  0.167983  0.000000 )
               b(3) = (  0.000000  0.000000  0.029694 )

     PseudoPot. # 1 for Mg read from file:
     /home/vossj/suncat/psp/gbrv1.5pbe/Mg.UPF
     MD5 check sum: 8ffbd8f729fef71095aac5bd8316fb1f
     Pseudo is Ultrasoft, Zval = 10.0
     Generated by new atomic code, or converted to UPF format
     Using radial grid of  821 points,  7 beta functions with:
                l(1) =   0
                l(2) =   0
                l(3) =   0
                l(4) =   1
                l(5) =   1
                l(6) =   2
                l(7) =   2
     Q(r) pseudized with  8 coefficients,  rinner =    1.200   1.200   1.200
                                                       1.200   1.200

     PseudoPot. # 2 for N  read from file:
     /home/vossj/suncat/psp/gbrv1.5pbe/N.UPF
     MD5 check sum: 95339753478d7afb44899504a8723017
     Pseudo is Ultrasoft + core correction, Zval =  5.0
     Generated by new atomic code, or converted to UPF format
     Using radial grid of  729 points,  4 beta functions with:
                l(1) =   0
                l(2) =   0
                l(3) =   1
                l(4) =   1
     Q(r) pseudized with  8 coefficients,  rinner =    0.900   0.900   0.900

     atomic species   valence    mass     pseudopotential
        Mg1           10.00    24.30500     Mg( 1.00)
        N1             5.00    14.00670     N ( 1.00)

     No symmetry found

   Cartesian axes

     site n.     atom                  positions (alat units)
         1           Mg1 tau(   1) = (   9.4520000   5.4570000  10.8750000  )
         2           Mg1 tau(   2) = (   7.7330000   2.4800000  10.8750000  )
         3           Mg1 tau(   3) = (   6.0150000   5.4570000  10.8750000  )
         4           Mg1 tau(   4) = (   4.2960000   2.4800000  10.8750000  )
         5           N1  tau(   5) = (   4.2960000   4.4650000  11.5770000  )
         6           N1  tau(   6) = (   7.7330000   4.4650000  11.5770000  )
         7           N1  tau(   7) = (   6.0150000   1.4880000  11.5770000  )
         8           N1  tau(   8) = (   2.5780000   1.4880000  11.5770000  )
         9           Mg1 tau(   9) = (   7.7330000   4.4650000  13.6810000  )
        10           Mg1 tau(  10) = (   6.0150000   1.4880000  13.6810000  )
        11           Mg1 tau(  11) = (   4.2960000   4.4650000  13.6810000  )
        12           Mg1 tau(  12) = (   2.5780000   1.4880000  13.6810000  )
        13           N1  tau(  13) = (   4.2960000   0.4960000  14.3830000  )
        14           N1  tau(  14) = (   6.0150000   3.4720000  14.3830000  )
        15           N1  tau(  15) = (   2.5780000   3.4720000  14.3830000  )
        16           N1  tau(  16) = (   0.8590000   0.4960000  14.3830000  )
        17           Mg1 tau(  17) = (   4.3400000   0.5160000  16.4110000  )
        18           Mg1 tau(  18) = (   6.0170000   3.4320000  16.4040000  )
        19           Mg1 tau(  19) = (   0.7600000   0.5410000  16.4230000  )
        20           Mg1 tau(  20) = (   2.5460000   3.4760000  16.3860000  )
        21           N1  tau(  21) = (   7.7250000   2.4850000  17.5940000  )
        22           N1  tau(  22) = (   6.0150000   5.4450000  17.6810000  )
        23           N1  tau(  23) = (   9.4410000   5.4660000  17.6370000  )
        24           N1  tau(  24) = (   4.2510000   2.4940000  17.4980000  )
        25           Mg1 tau(  25) = (   2.5790000   1.4960000  18.3360000  )
        26           Mg1 tau(  26) = (   7.7410000   4.4470000  18.4520000  )
        27           Mg1 tau(  27) = (   5.9280000   1.5650000  18.6070000  )
        28           Mg1 tau(  28) = (   4.2870000   4.4330000  18.3470000  )
        29           N1  tau(  29) = (   3.8210000   3.1820000  23.6170000  )
        30           N1  tau(  30) = (   5.6530000   1.9360000  20.6000000  )
        31           N1  tau(  31) = (   5.6780000   5.6110000  22.0370000  )
        32           N1  tau(  32) = (   8.0620000   4.5920000  20.9860000  )
        33           Mg1 tau(  33) = (   4.7860000   1.3950000  22.4760000  )
        34           Mg1 tau(  34) = (   6.3620000   3.4760000  21.7890000  )
        35           Mg1 tau(  35) = (   1.4700000   1.6620000  24.0980000  )
        36           Mg1 tau(  36) = (   7.1470000   0.7380000  21.5180000  )
        37           N1  tau(  37) = (   8.7430000   5.3230000  21.5980000  )
        38           N1  tau(  38) = (   2.8070000   0.4960000  22.7640000  )
        39           N1  tau(  39) = (   3.1260000   3.1690000  24.5330000  )
        40           N1  tau(  40) = (   6.6860000   1.9320000  23.1700000  )

     number of k points=    10  Fermi-Dirac smearing, width (Ry)=  0.0073
                       cart. coord. in units 2pi/alat
        k(    1) = (   0.0000000   0.0000000   0.0000000), wk =   0.1250000
        k(    2) = (   0.0000000   0.0419956   0.0000000), wk =   0.2500000
        k(    3) = (   0.0000000  -0.0839913   0.0000000), wk =   0.1250000
        k(    4) = (   0.0363689  -0.0209978   0.0000000), wk =   0.2500000
        k(    5) = (   0.0363689   0.0209978   0.0000000), wk =   0.2500000
        k(    6) = (   0.0363689  -0.1049891   0.0000000), wk =   0.2500000
        k(    7) = (   0.0363689  -0.0629934   0.0000000), wk =   0.2500000
        k(    8) = (  -0.0727379   0.0419956   0.0000000), wk =   0.1250000
        k(    9) = (  -0.0727379   0.0839913   0.0000000), wk =   0.2500000
        k(   10) = (  -0.0727379  -0.0419956   0.0000000), wk =   0.1250000

     Initial potential from superposition of free atoms
     Check: negative starting charge=   -0.001874

     starting charge  293.99524, renormalised to  300.00000

     negative rho (up, down):  1.912E-03 0.000E+00

     Adding external electric field

     Computed dipole along edir(3) :
        Dipole               -5.0334 Ry au,        -12.7936 Debye
        Dipole field         -0.0068 Ry au,

        Potential amp.        0.8440 Ry
        Total length         62.0493 bohr

     Starting wfc are  180 randomized atomic wfcs

     Self-consistent Calculation

     iteration #  1     ecut=    36.75 Ry     beta=0.10
     Davidson diagonalization with overlap
     ethr =  1.00E-02,  avg # of iterations = 10.4

[...]

     total energy              =   -2859.16449514 Ry
     Harris-Foulkes estimate   =   -2920.34442049 Ry
     estimated scf accuracy    <     329.77789763 Ry

[...]

     iteration # 49     ecut=    36.75 Ry     beta=0.10
     Davidson diagonalization with overlap
     c_bands:  1 eigenvalues not converged
     ethr =  3.18E-06,  avg # of iterations =  6.4

[...]

     End of self-consistent calculation

          k = 0.0000 0.0000 0.0000 ( 35043 PWs)   bands (ev):

   -75.7053 -75.2579 -74.9287 -74.8132 -74.4129 -74.4074 -74.3874 -73.7830
   -73.7321 -73.7177 -73.6178 -73.6173 -73.6165 -73.6157 -73.5631 -73.5597
   -72.4980 -72.4877 -72.4871 -72.4865 -42.5312 -42.4795 -42.3705 -42.0912
   -41.9936 -41.9572 -41.7556 -41.6739 -41.6584 -41.6310 -41.5481 -41.5066
   -41.2677 -41.2411 -41.2340 -41.1321 -41.1274 -41.1245 -41.1203 -41.1000
   -41.0955 -40.5878 -40.5581 -40.5317 -40.5146 -40.5068 -40.4937 -40.4742
   -40.4634 -40.4623 -40.4615 -40.4608 -40.4304 -40.4185 -40.3519 -40.3454
   -40.3402 -40.3356 -40.3343 -40.3341 -40.3337 -40.3245 -40.3241 -40.3237
   -40.3209 -40.3208 -40.2817 -40.2648 -39.2627 -39.2621 -39.2612 -39.2556
   -39.2507 -39.2497 -39.2494 -39.2490 -39.2487 -39.2454 -39.2430 -39.2428
   -23.5600 -22.6787 -20.8961 -12.5813 -12.3741 -11.9355 -11.7715 -11.7204
   -11.6860 -11.5366 -11.4879 -11.1675 -11.1661 -11.1650 -11.0107 -11.0086
   -11.0055 -10.6208 -10.3630 -10.2194  -7.7944  -7.4666  -7.3936  -7.0278
    -6.8093  -6.5856  -6.0384  -5.8620  -5.6167  -3.6833  -3.6364  -3.5951
    -3.0115  -2.5646  -2.3084  -2.3058  -2.3035  -2.0813  -2.0225  -2.0120
    -1.9978  -1.7830  -1.6088  -1.2002  -1.1459  -1.0032  -0.9289  -0.8610
    -0.8484  -0.7948  -0.7632  -0.6513  -0.5658  -0.5609  -0.5440  -0.1599
    -0.1460  -0.1352  -0.0315  -0.0225   0.0277   0.0662   0.0676   0.0686
     0.1168   0.3889   0.3911   0.3926   0.5516   0.6331   0.6333   0.7727
     0.7729   0.7957   0.9939   1.1017   1.2103   1.3587   1.6475   1.9109
     3.0171   3.1286   3.3627   3.4012   3.6097   3.8187   3.8805   4.0099
     4.1389   4.1520

[...]

          k =-0.0727 0.0420 0.0000 ( 35002 PWs)   bands (ev):

[...]

     the Fermi energy is     0.4235 ev

!    total energy              =   -2911.86558567 Ry
     Harris-Foulkes estimate   =   -2911.86558566 Ry
     estimated scf accuracy    <       0.00000043 Ry

     The total energy is the sum of the following terms:

     one-electron contribution =  -29079.75145384 Ry
     hartree contribution      =   14512.08526542 Ry
     xc contribution           =    -447.57145058 Ry
     ewald contribution        =   12103.42979657 Ry
     electric field correction =       0.00000578 Ry
     smearing contrib. (-TS)   =      -0.05774901 Ry

     convergence has been achieved in  63 iterations

[...]

     Forces acting on atoms (cartesian axes, Ry/au):

     atom    1 type  1   force =    -0.00004636   -0.00008039    0.05936403
     atom    2 type  1   force =     0.00023253    0.00006800    0.05945343
     atom    3 type  1   force =    -0.00020223    0.00002743    0.05920004
     atom    4 type  1   force =     0.00003463    0.00015844    0.05941475
     atom    5 type  2   force =     0.00016586   -0.00007794   -0.06468488
[...]
     atom   13 type  2   force =     0.00172185   -0.00173621    0.02208586
     atom   14 type  2   force =     0.00163751   -0.00007137    0.01944846
     atom   15 type  2   force =    -0.00180002    0.00175654    0.01017473
     atom   16 type  2   force =    -0.00152432    0.00035337    0.02759462
     atom   17 type  1   force =    -0.00009221   -0.00050573    0.00004885
     atom   18 type  1   force =     0.00013031   -0.00023591    0.00001176
     atom   19 type  1   force =    -0.00000406    0.00029008   -0.00010591
     atom   20 type  1   force =     0.00066600   -0.00002223    0.00032196
     atom   21 type  2   force =     0.00022997    0.00041706    0.00062065
     atom   22 type  2   force =     0.00020844    0.00046812   -0.00017761
     atom   23 type  2   force =    -0.00017363    0.00000800   -0.00028389
     atom   24 type  2   force =     0.00039893    0.00010543    0.00032681
     atom   25 type  1   force =     0.00020585    0.00032495    0.00038032
     atom   26 type  1   force =     0.00019938    0.00059563   -0.00069260
     atom   27 type  1   force =    -0.00048426    0.00080884   -0.00057327
     atom   28 type  1   force =     0.00016070   -0.00025247    0.00088879
     atom   29 type  2   force =     0.00138188   -0.00031643   -0.00152234
     atom   30 type  2   force =    -0.00038145   -0.00029825    0.00028948
     atom   31 type  2   force =    -0.00017236   -0.00002635    0.00036217
     atom   32 type  2   force =     0.00084737    0.00078235   -0.00120922
     atom   33 type  1   force =    -0.00021839   -0.00118198   -0.00005371
     atom   34 type  1   force =    -0.00000319   -0.00055839   -0.00023404
     atom   35 type  1   force =    -0.00021543   -0.00083442    0.00034791
     atom   36 type  1   force =    -0.00029498   -0.00033738    0.00029176
     atom   37 type  2   force =    -0.00098617   -0.00049066   -0.00029517
     atom   38 type  2   force =     0.00119015    0.00031976    0.00027084
     atom   39 type  2   force =    -0.00167063   -0.00013495    0.00135645
     atom   40 type  2   force =    -0.00032638    0.00074798   -0.00016604

     Total force =     0.182751     Total SCF correction =     0.001755

     Writing output data file calc.save

     General routines

     Parallel routines

   This run was terminated on:   0:18:41  13Nov2017

   JOB DONE.

     Program PWSCF v.6.1 starts on 13Nov2017 at  0:18:42

[...]

   This run was terminated on:   0:57: 7  13Nov2017

[...]

     Program PWSCF v.6.1 starts on 13Nov2017 at  0:57: 8

[...]

     iteration #  2     ecut=    36.75 Ry     beta=0.10
     Davidson diagonalization with overlap
  python dir          : /home/mstatt/espresso/lib/python2.7/site-packages/espresso
  espresso dir        : /home/mstatt/espresso/q-e/bin
  pseudo dir          : /home/vossj/suncat/psp/gbrv1.5pbe
  ase-espresso py git : 5c31baa-git

[...]

     Total force =     0.182756     Total SCF correction =     0.001512

     Writing output data file calc.save

     General routines

     Parallel routines

   This run was terminated on:  11:12:27  13Nov2017

   JOB DONE.

     Program PWSCF v.6.1 starts on 13Nov2017 at 11:12:28

     Current dimensions of program PWSCF are:
     Max number of different atomic species (ntypx) = 10
     Max number of k-points (npk) =  40000
     Max angular momentum in pseudopotentials (lmaxx) =  3
     Presently no symmetry can be used with electric field

     IMPORTANT: XC functional enforced from input :
     Exchange-correlation      = RPBE ( 1  4 30  4 0 0)
     Any further DFT definition will be discarded
     Please, verify this is what you really want

     bravais-lattice index     =            0
     lattice parameter (alat)  =       1.8897  a.u.
     unit-cell volume          =    9299.8385 (a.u.)^3
     number of atoms/cell      =           40
     number of atomic types    =            2
     number of electrons       =       300.00
     number of Kohn-Sham states=          170
     kinetic-energy cutoff     =      36.7493  Ry
     charge density cutoff     =     367.4932  Ry
     convergence threshold     =      7.3E-07
     mixing beta               =       0.1000
     number of iterations used =           10  plain     mixing
     Exchange-correlation      = RPBE ( 1  4 30  4 0 0)

     celldm(1)=   1.889726  celldm(2)=   0.000000  celldm(3)=   0.000000
     celldm(4)=   0.000000  celldm(5)=   0.000000  celldm(6)=   0.000000

     crystal axes: (cart. coord. in units of alat)
               a(1) = (   6.874000   0.000000  -0.000000 )
               a(2) = (   3.437000   5.953000  -0.000000 )
               a(3) = (   0.000000  -0.000000  33.677000 )

     reciprocal axes: (cart. coord. in units 2 pi/alat)
               b(1) = (  0.145476 -0.083991 -0.000000 )
               b(2) = (  0.000000  0.167983  0.000000 )
               b(3) = (  0.000000  0.000000  0.029694 )

     PseudoPot. # 1 for Mg read from file:
     /home/vossj/suncat/psp/gbrv1.5pbe/Mg.UPF
     MD5 check sum: 8ffbd8f729fef71095aac5bd8316fb1f
     Pseudo is Ultrasoft, Zval = 10.0
     Generated by new atomic code, or converted to UPF format
     Using radial grid of  821 points,  7 beta functions with:
                l(1) =   0
                l(2) =   0
                l(3) =   0
                l(4) =   1
                l(5) =   1
                l(6) =   2
                l(7) =   2
     Q(r) pseudized with  8 coefficients,  rinner =    1.200   1.200   1.200
                                                       1.200   1.200

     PseudoPot. # 2 for N  read from file:
     /home/vossj/suncat/psp/gbrv1.5pbe/N.UPF
     MD5 check sum: 95339753478d7afb44899504a8723017
     Pseudo is Ultrasoft + core correction, Zval =  5.0
     Generated by new atomic code, or converted to UPF format
     Using radial grid of  729 points,  4 beta functions with:
                l(1) =   0
                l(2) =   0
                l(3) =   1
                l(4) =   1
     Q(r) pseudized with  8 coefficients,  rinner =    0.900   0.900   0.900

     atomic species   valence    mass     pseudopotential
        Mg1           10.00    24.30500     Mg( 1.00)
        N1             5.00    14.00670     N ( 1.00)

     No symmetry found

   Cartesian axes

     site n.     atom                  positions (alat units)
         1           Mg1 tau(   1) = (   9.4520000   5.4570000  10.8750000  )
         2           Mg1 tau(   2) = (   7.7330000   2.4800000  10.8750000  )
         3           Mg1 tau(   3) = (   6.0150000   5.4570000  10.8750000  )
         4           Mg1 tau(   4) = (   4.2960000   2.4800000  10.8750000  )
         5           N1  tau(   5) = (   4.2960000   4.4650000  11.5770000  )
         6           N1  tau(   6) = (   7.7330000   4.4650000  11.5770000  )
         7           N1  tau(   7) = (   6.0150000   1.4880000  11.5770000  )
         8           N1  tau(   8) = (   2.5780000   1.4880000  11.5770000  )
         9           Mg1 tau(   9) = (   7.7330000   4.4650000  13.6810000  )
        10           Mg1 tau(  10) = (   6.0150000   1.4880000  13.6810000  )
        11           Mg1 tau(  11) = (   4.2960000   4.4650000  13.6810000  )
        12           Mg1 tau(  12) = (   2.5780000   1.4880000  13.6810000  )
        13           N1  tau(  13) = (   4.2960000   0.4960000  14.3830000  )
        14           N1  tau(  14) = (   6.0150000   3.4720000  14.3830000  )
        15           N1  tau(  15) = (   2.5780000   3.4720000  14.3830000  )
        16           N1  tau(  16) = (   0.8590000   0.4960000  14.3830000  )
        17           Mg1 tau(  17) = (   4.3392269   0.5134370  16.4110936  )
        18           Mg1 tau(  18) = (   6.0175970   3.4311429  16.4038369  )
        19           Mg1 tau(  19) = (   0.7603294   0.5423020  16.4232490  )
        20           Mg1 tau(  20) = (   2.5499237   3.4760208  16.3875381  )
        21           N1  tau(  21) = (   7.7261825   2.4870926  17.5971355  )
        22           N1  tau(  22) = (   6.0156844   5.4474243  17.6803178  )
        23           N1  tau(  23) = (   9.4409678   5.4661945  17.6355352  )
        24           N1  tau(  24) = (   4.2529198   2.4947877  17.4997520  )
        25           Mg1 tau(  25) = (   2.5800352   1.4977354  18.3388279  )
        26           Mg1 tau(  26) = (   7.7420788   4.4500435  18.4491333  )
        27           Mg1 tau(  27) = (   5.9258471   1.5689639  18.6053400  )
        28           Mg1 tau(  28) = (   4.2881289   4.4325919  18.3515940  )
        29           N1  tau(  29) = (   3.8216552   3.1800912  23.6175847  )
        30           N1  tau(  30) = (   5.6506458   1.9337300  20.6007003  )
        31           N1  tau(  31) = (   5.6777688   5.6118422  22.0397506  )
        32           N1  tau(  32) = (   8.0638846   4.5938247  20.9777502  )
        33           Mg1 tau(  33) = (   4.7851949   1.3902593  22.4755865  )
        34           Mg1 tau(  34) = (   6.3618181   3.4735475  21.7874191  )
        35           Mg1 tau(  35) = (   1.4684657   1.6580093  24.0986984  )
        36           Mg1 tau(  36) = (   7.1461101   0.7368766  21.5188111  )
        37           N1  tau(  37) = (   8.7399054   5.3221454  21.5974725  )
        38           N1  tau(  38) = (   2.8116583   0.4955129  22.7648294  )
        39           N1  tau(  39) = (   3.1234458   3.1680315  24.5314186  )
        40           N1  tau(  40) = (   6.6852281   1.9346867  23.1696632  )

     number of k points=    10  Fermi-Dirac smearing, width (Ry)=  0.0073
                       cart. coord. in units 2pi/alat
        k(    1) = (   0.0000000   0.0000000   0.0000000), wk =   0.1250000
        k(    2) = (   0.0000000   0.0419956   0.0000000), wk =   0.2500000
        k(    3) = (   0.0000000  -0.0839913   0.0000000), wk =   0.1250000
        k(    4) = (   0.0363689  -0.0209978   0.0000000), wk =   0.2500000
        k(    5) = (   0.0363689   0.0209978   0.0000000), wk =   0.2500000
        k(    6) = (   0.0363689  -0.1049891   0.0000000), wk =   0.2500000
        k(    7) = (   0.0363689  -0.0629934   0.0000000), wk =   0.2500000
        k(    8) = (  -0.0727379   0.0419956   0.0000000), wk =   0.1250000
        k(    9) = (  -0.0727379   0.0839913   0.0000000), wk =   0.2500000
        k(   10) = (  -0.0727379  -0.0419956   0.0000000), wk =   0.1250000

     Initial potential from superposition of free atoms
     Check: negative starting charge=   -0.001874

     starting charge  293.99524, renormalised to  300.00000

[...]

     Starting wfc are  180 randomized atomic wfcs

     Self-consistent Calculation

[...]

     total energy              =   -2911.86565460 Ry
     Harris-Foulkes estimate   =   -2911.86565455 Ry
     estimated scf accuracy    <       0.00000107 Ry

     iteration # 38     ecut=    36.75 Ry     beta=0.10
     Davidson diagonalization with overlap
     ethr =  3.58E-10,  avg # of iterations =  1.9

[...]

     Adding external electric field

     Computed dipole along edir(3) :
        Dipole               -0.0723 Ry au,         -0.1836 Debye
        Dipole field         -0.0001 Ry au,

        Potential amp.        0.0121 Ry
        Total length         62.0493 bohr

     End of self-consistent calculation

[...]

          k = 0.0364-0.0630 0.0000 ( 34973 PWs)   bands (ev):

[...]

          k =-0.0727-0.0420 0.0000 ( 35002 PWs)   bands (ev):

   -75.7092 -75.2595 -74.9240 -74.8107 -74.4134 -74.3985 -74.3925 -73.7803
   -73.7313 -73.7190 -73.6162 -73.6161 -73.6153 -73.6144 -73.5590 -73.5590
   -72.4965 -72.4862 -72.4859 -72.4850 -42.5348 -42.4837 -42.3741 -42.0930
   -41.9953 -41.9586 -41.7511 -41.6695 -41.6553 -41.6265 -41.5453 -41.5044
   -41.2680 -41.2515 -41.2194 -41.1272 -41.1231 -41.1131 -41.1121 -41.1108
   -41.1073 -40.5848 -40.5552 -40.5302 -40.5160 -40.5068 -40.4951 -40.4715
   -40.4614 -40.4613 -40.4602 -40.4595 -40.4297 -40.4198 -40.3513 -40.3417
   -40.3393 -40.3309 -40.3307 -40.3302 -40.3264 -40.3262 -40.3252 -40.3244
   -40.3214 -40.3208 -40.2782 -40.2641 -39.2600 -39.2596 -39.2579 -39.2518
   -39.2490 -39.2487 -39.2479 -39.2475 -39.2467 -39.2462 -39.2454 -39.2422
   -23.5518 -22.6906 -20.8910 -12.4394 -12.2011 -12.1580 -11.7517 -11.7164
   -11.5916 -11.5900 -11.5400 -11.2433 -11.2419 -11.1790 -11.1785 -11.0040
   -11.0010 -10.6023 -10.3645 -10.1065  -7.8116  -7.4586  -7.4275  -7.0426
    -6.7814  -6.6044  -6.0910  -5.8418  -5.6058  -3.1381  -3.0987  -2.7630
    -2.4463  -2.3482  -2.2480  -2.0716  -1.9539  -1.9139  -1.7714  -1.7317
    -1.7080  -1.6548  -1.6472  -1.6445  -1.5947  -1.5641  -1.2160  -1.1697
    -1.1582  -1.1358  -0.9870  -0.8480  -0.6929  -0.6740  -0.6074  -0.5381
    -0.5319  -0.4563  -0.4021  -0.3983  -0.3360  -0.3294  -0.2521  -0.0981
     0.0282   0.0979   0.1408   0.1504   0.3265   0.3268   0.3531   0.5860
     0.5866   1.0426   1.1522   1.2157   1.5970   2.0253   2.1655   2.3674
     2.3715   2.6392   3.6509   3.8155   3.8157   4.0665   4.1020   4.1235
     4.2533   4.3423

     the Fermi energy is     0.4244 ev

!    total energy              =   -2911.86565512 Ry
     Harris-Foulkes estimate   =   -2911.86565317 Ry
     estimated scf accuracy    <       0.00000066 Ry

     The total energy is the sum of the following terms:

     one-electron contribution =  -29080.14305272 Ry
     hartree contribution      =   14512.26869990 Ry
     xc contribution           =    -447.56968454 Ry
     ewald contribution        =   12103.63610239 Ry
     electric field correction =       0.00000705 Ry
     smearing contrib. (-TS)   =      -0.05772720 Ry

     convergence has been achieved in  38 iterations

     negative rho (up, down):  2.428E-03 0.000E+00

     Forces acting on atoms (cartesian axes, Ry/au):

     atom    1 type  1   force =    -0.00007244   -0.00006627    0.05934031
     atom    2 type  1   force =     0.00017432    0.00006843    0.05941224
     atom    3 type  1   force =    -0.00017610   -0.00002532    0.05922909
     atom    4 type  1   force =     0.00009216    0.00013240    0.05939289
     atom    5 type  2   force =     0.00016084   -0.00009582   -0.06460582
     atom    6 type  2   force =     0.00016968   -0.00015219   -0.06433937
     atom    7 type  2   force =    -0.00005118    0.00000372   -0.06427197
     atom    8 type  2   force =    -0.00014409    0.00003004   -0.06459005
     atom    9 type  1   force =    -0.00040489    0.00007376   -0.01489350
     atom   10 type  1   force =    -0.00063835    0.00046238   -0.01699777
     atom   11 type  1   force =     0.00041234   -0.00014050   -0.01356374
     atom   12 type  1   force =    -0.00012429   -0.00045817   -0.01341209
     atom   13 type  2   force =     0.00169083   -0.00171176    0.02220147
     atom   14 type  2   force =     0.00162964   -0.00011115    0.01956413
     atom   15 type  2   force =    -0.00178089    0.00169106    0.01079736
     atom   16 type  2   force =    -0.00152817    0.00040503    0.02774426
     atom   17 type  1   force =    -0.00016799   -0.00005042   -0.00009001
     atom   18 type  1   force =     0.00004728    0.00021289   -0.00003945
     atom   19 type  1   force =     0.00023858   -0.00004566    0.00033318
     atom   20 type  1   force =     0.00042816    0.00014377   -0.00032310
     atom   21 type  2   force =     0.00005735    0.00005887    0.00010211
     atom   22 type  2   force =    -0.00013379    0.00014453    0.00015820
     atom   23 type  2   force =     0.00053379    0.00014977   -0.00001332
     atom   24 type  2   force =    -0.00003749    0.00021750    0.00014306
     atom   25 type  1   force =     0.00002818    0.00005274    0.00014532
     atom   26 type  1   force =    -0.00000051    0.00014331    0.00015491
     atom   27 type  1   force =     0.00026230    0.00002146    0.00030995
     atom   28 type  1   force =     0.00033917    0.00061149   -0.00027258
     atom   29 type  2   force =     0.00031126   -0.00013695   -0.00033385
     atom   30 type  2   force =    -0.00035172   -0.00043392   -0.00010223
     atom   31 type  2   force =    -0.00023594   -0.00035424   -0.00009466
     atom   32 type  2   force =    -0.00108179   -0.00075730   -0.00111464
     atom   33 type  1   force =     0.00043855    0.00044624   -0.00014374
     atom   34 type  1   force =     0.00006765    0.00000808   -0.00054033
     atom   35 type  1   force =    -0.00029951   -0.00020684   -0.00023816
     atom   36 type  1   force =    -0.00004694    0.00037111   -0.00017547
     atom   37 type  2   force =     0.00066961    0.00045257    0.00008964
     atom   38 type  2   force =    -0.00009031   -0.00038683    0.00057917
     atom   39 type  2   force =    -0.00057862   -0.00019897    0.00033871
     atom   40 type  2   force =     0.00019329   -0.00056881    0.00011985